101538661 -1 0
h -2 0
409936705 -3 0
758359452 -4 0
459871124 -5 0
75726755 -6 0
349454468 -7 0
232912815 -8 0
103834288 -9 0
97664846 -10 0
263383087 -11 0
h 2 0
368050904 -12 0
53216700 13 0
553873011 -14 0
92728956 -15 0
196625090 -16 0
179302828 -17 0
